n = 39;
rows = 82;
supports = [|
  {1},2..4,
 |{1},37..39,
 |{2},{1},
 |{2},3..5,
 |{2},38..39,
 |{3},1..2,
 |{3},4..6,
 |{3},{39},
 |{4},1..3,
 |{4},5..7,
 |{5},2..4,
 |{5},6..8,
 |{6},3..5,
 |{6},7..9,
 |{7},4..6,
 |{7},8..10,
 |{8},5..7,
 |{8},9..11,
 |{9},6..8,
 |{9},10..12,
 |{10},7..9,
 |{10},11..13,
 |{11},8..10,
 |{11},12..14,
 |{12},9..11,
 |{12},13..15,
 |{13},10..12,
 |{13},14..16,
 |{14},11..13,
 |{14},15..17,
 |{15},12..14,
 |{15},16..18,
 |{16},13..15,
 |{16},17..19,
 |{17},14..16,
 |{17},18..20,
 |{18},15..17,
 |{18},19..21,
 |{19},16..18,
 |{19},20..22,
 |{20},17..19,
 |{20},21..23,
 |{21},18..20,
 |{21},22..24,
 |{22},19..21,
 |{22},23..25,
 |{23},20..22,
 |{23},24..26,
 |{24},21..23,
 |{24},25..27,
 |{25},22..24,
 |{25},26..28,
 |{26},23..25,
 |{26},27..29,
 |{27},24..26,
 |{27},28..30,
 |{28},25..27,
 |{28},29..31,
 |{29},26..28,
 |{29},30..32,
 |{30},27..29,
 |{30},31..33,
 |{31},28..30,
 |{31},32..34,
 |{32},29..31,
 |{32},33..35,
 |{33},30..32,
 |{33},34..36,
 |{34},31..33,
 |{34},35..37,
 |{35},32..34,
 |{35},36..38,
 |{36},33..35,
 |{36},37..39,
 |{37},34..36,
 |{37},38..39,
 |{37},{1},
 |{38},35..37,
 |{38},{39},
 |{38},1..2,
 |{39},36..38,
 |{39},1..3 |];

t = 46;

indexes = [|
    0,5,
  | 0,29,
  | 1,8,
  | 1,35,
  | 2,23,
  | 2,25,
  | 2,35,
  | 3,21,
  | 4,29,
  | 5,11,
  | 6,25,
  | 7,14,
  | 7,21,
  | 7,22,
  | 8,24,
  | 8,32,
  | 9,12,
  | 10,34,
  | 10,38,
  | 11,38,
  | 12,17,
  | 12,29,
  | 13,32,
  | 13,35,
  | 14,33,
  | 15,22,
  | 15,26,
  | 15,27,
  | 16,31,
  | 17,18,
  | 17,19,
  | 17,31,
  | 18,31,
  | 19,36,
  | 20,32,
  | 21,33,
  | 22,30,
  | 26,27,
  | 26,36,
  | 27,29,
  | 28,34,
  | 28,38,
  | 30,35,
  | 33,34,
  | 34,37,
  | 35,36 |];

